120
150
50
54
52
57
57
41
50
53
55
50
60
40
49
46
54
51
42
51
47
55
48
55
45
60
51
45
56
59
49
53
51
48
57
49
51
40
46
50
53
50
43
42
45
52
43
54
59
51
52
49
49
49
44
57
54
50
52
46
47
53
51
49
44
50
52
50
45
48
52
53
53
46
51
52
56
46
60
42
51
40
45
56
51
50
50
49
46
54
59
45
52
57
44
56
41
43
53
48
59
53
43
53
44
41
51
49
50
47
59
44
52
52
59
46
47
48
44
50
46
52
